100
-18 -48 0 -46 -68 0 -10 0 92 46 0 -98 0 -60 0 70 -72 0 22 0 0 8 80 100 0 0 0 -100 78 84 -72 0 -52 0 0 -8 -44 -94 0 2 0 0 0 -34 -34 0 0 38 -62 0 0 -28 -34 88 46 0 0 94 -54 -60 0 -80 2 0 0 0 2 -82 60 0 -94 26 0 84 30 -62 0 0 74 -4 0 0 -60 0 0 0 58 22 48 -38 0 -34 0 0 -34 0 -96 -2 0 0
0 0 -99 0 0 81 0 -9 0 0 -7 0 15 0 1 0 0 -33 0 87 53 0 0 0 -49 69 -15 0 0 0 0 -69 0 -23 97 0 0 0 -59 0 1 -43 -51 0 0 -57 -23 0 0 17 65 0 0 0 0 -99 21 0 0 0 87 0 0 91 -83 39 0 0 0 -25 0 0 83 0 0 0 61 17 0 0 -15 -35 0 69 17 1 0 0 0 0 -57 0 23 -91 0 -45 0 0 0 -95
